#P  freq=anharmonic external="./nn_freq.py" 

Title

0 1
C       -0.149082   -0.408146    0.000011
O        1.051057   -0.503538   -0.000005
O       -0.832055    0.754015   -0.000008
H       -0.847976   -1.250689    0.000044
H       -0.170936    1.463874   -0.000033

